30 10000
3686 97
3322 89
1719 19
2702 43
3671 94
9096 59
9139 7
2979 48
1287 96
7071 18
6036 52
9110 34
9270 89
7353 57
6628 54
6083 96
3327 67
786 7
2444 23
7400 53
8014 35
5002 83
7432 53
1726 15
5804 72
5168 26
9612 47
6741 54
2855 55
1976 41
